g3 1 1 0	# problem ZDT1
 30 0 2 0 0	# vars, constraints, objectives, ranges, eqns
 0 2	# nonlinear constraints, objectives
 0 0	# network constraints: nonlinear, linear
 0 30 0	# nonlinear vars in constraints, objectives, both
 0 0 0 1	# linear network variables; functions; arith, flags
 0 0 0 0 0	# discrete variables: binary, integer, nonlinear (b,c,o)
 0 31	# nonzeros in Jacobian, gradients
 0 0	# max name lengths: constraints, variables
 0 0 1 0 2	# common exprs: b,c,o,c1,o1
V30 1 0
0 1
n0
O0 0
v30
V31 29 2
1 0.3103448275862069
2 0.3103448275862069
3 0.3103448275862069
4 0.3103448275862069
5 0.3103448275862069
6 0.3103448275862069
7 0.3103448275862069
8 0.3103448275862069
9 0.3103448275862069
10 0.3103448275862069
11 0.3103448275862069
12 0.3103448275862069
13 0.3103448275862069
14 0.3103448275862069
15 0.3103448275862069
16 0.3103448275862069
17 0.3103448275862069
18 0.3103448275862069
19 0.3103448275862069
20 0.3103448275862069
21 0.3103448275862069
22 0.3103448275862069
23 0.3103448275862069
24 0.3103448275862069
25 0.3103448275862069
26 0.3103448275862069
27 0.3103448275862069
28 0.3103448275862069
29 0.3103448275862069
n1
V32 0 2
o1
n1
o39
o3
v30
v31
O1 0
o2
v31
v32
b
0 0 1
0 0 1
0 0 1
0 0 1
0 0 1
0 0 1
0 0 1
0 0 1
0 0 1
0 0 1
0 0 1
0 0 1
0 0 1
0 0 1
0 0 1
0 0 1
0 0 1
0 0 1
0 0 1
0 0 1
0 0 1
0 0 1
0 0 1
0 0 1
0 0 1
0 0 1
0 0 1
0 0 1
0 0 1
0 0 1
k29
0
0
0
0
0
0
0
0
0
0
0
0
0
0
0
0
0
0
0
0
0
0
0
0
0
0
0
0
0
G0 1
0 0
G1 30
0 0
1 0
2 0
3 0
4 0
5 0
6 0
7 0
8 0
9 0
10 0
11 0
12 0
13 0
14 0
15 0
16 0
17 0
18 0
19 0
20 0
21 0
22 0
23 0
24 0
25 0
26 0
27 0
28 0
29 0
